This is Ipopt version 3.13.4, running with linear solver mumps.
NOTE: Other linear solvers might be more efficient (see Ipopt documentation).

Number of nonzeros in equality constraint Jacobian...:     1330
Number of nonzeros in inequality constraint Jacobian.:        0
Number of nonzeros in Lagrangian Hessian.............:        0

Total number of variables............................:       95
                     variables with only lower bounds:        0
                variables with lower and upper bounds:       89
                     variables with only upper bounds:        0
Total number of equality constraints.................:       14
Total number of inequality constraints...............:        0
        inequality constraints with only lower bounds:        0
   inequality constraints with lower and upper bounds:        0
        inequality constraints with only upper bounds:        0

iter    objective    inf_pr   inf_du lg(mu)  ||d||  lg(rg) alpha_du alpha_pr  ls
   0  1.0000000e+00 1.03e-01 0.00e+00   0.0 0.00e+00    -  0.00e+00 0.00e+00   0
   1  1.0000000e+00 6.22e-03 2.60e-02  -1.7 2.38e-02    -  9.88e-01 1.00e+00f  1
   2  1.0000000e+00 9.57e-04 2.11e-02  -2.6 4.73e-02    -  9.92e-01 1.00e+00h  1
   3  1.0000000e+00 2.32e-04 2.70e-04  -4.7 6.77e-03    -  9.90e-01 1.00e+00h  1
   4  1.0000000e+00 1.26e-07 6.24e-08 -10.4 1.63e-04    -  9.99e-01 1.00e+00h  1

Number of Iterations....: 4

                                   (scaled)                 (unscaled)
Objective...............:   1.0000000000000000e+00    1.0000000000000000e+00
Dual infeasibility......:   6.2364192253117423e-08    6.2364192253117423e-08
Constraint violation....:   1.2633518053917214e-07    1.2633518053917214e-07
Complementarity.........:   1.1043295427234149e-07    1.1043295427234149e-07
Overall NLP error.......:   1.2633518053917214e-07    1.2633518053917214e-07


Number of objective function evaluations             = 5
Number of objective gradient evaluations             = 5
Number of equality constraint evaluations            = 5
Number of inequality constraint evaluations          = 0
Number of equality constraint Jacobian evaluations   = 5
Number of inequality constraint Jacobian evaluations = 0
Number of Lagrangian Hessian evaluations             = 0
Total CPU secs in IPOPT (w/o function evaluations)   =      4.023
Total CPU secs in NLP function evaluations           =     18.313

EXIT: Optimal Solution Found.
